certificates/rado_a10_c56_N29.cnf
c Rad2 upper bound instance: x1 + 10*x2 - x3 = 56, interval [1,29]
p cnf 29 168
1 5 6 0
-1 -5 -6 0
1 7 15 0
-1 -7 -15 0
1 8 25 0
-1 -8 -25 0
2 6 0
-2 -6 0
2 7 16 0
-2 -7 -16 0
2 8 26 0
-2 -8 -26 0
3 6 7 0
-3 -6 -7 0
3 7 17 0
-3 -7 -17 0
3 8 27 0
-3 -8 -27 0
4 6 8 0
-4 -6 -8 0
4 7 18 0
-4 -7 -18 0
4 8 28 0
-4 -8 -28 0
5 6 9 0
-5 -6 -9 0
5 7 19 0
-5 -7 -19 0
5 8 29 0
-5 -8 -29 0
6 10 0
-6 -10 0
6 7 20 0
-6 -7 -20 0
1 5 7 0
-1 -5 -7 0
6 7 11 0
-6 -7 -11 0
7 21 0
-7 -21 0
2 5 8 0
-2 -5 -8 0
6 8 12 0
-6 -8 -12 0
7 8 22 0
-7 -8 -22 0
3 5 9 0
-3 -5 -9 0
6 9 13 0
-6 -9 -13 0
7 9 23 0
-7 -9 -23 0
4 5 10 0
-4 -5 -10 0
6 10 14 0
-6 -10 -14 0
7 10 24 0
-7 -10 -24 0
5 11 0
-5 -11 0
6 11 15 0
-6 -11 -15 0
7 11 25 0
-7 -11 -25 0
5 6 12 0
-5 -6 -12 0
6 12 16 0
-6 -12 -16 0
7 12 26 0
-7 -12 -26 0
5 7 13 0
-5 -7 -13 0
6 13 17 0
-6 -13 -17 0
7 13 27 0
-7 -13 -27 0
5 8 14 0
-5 -8 -14 0
6 14 18 0
-6 -14 -18 0
7 14 28 0
-7 -14 -28 0
5 9 15 0
-5 -9 -15 0
6 15 19 0
-6 -15 -19 0
7 15 29 0
-7 -15 -29 0
5 10 16 0
-5 -10 -16 0
6 16 20 0
-6 -16 -20 0
1 4 17 0
-1 -4 -17 0
5 11 17 0
-5 -11 -17 0
6 17 21 0
-6 -17 -21 0
2 4 18 0
-2 -4 -18 0
5 12 18 0
-5 -12 -18 0
6 18 22 0
-6 -18 -22 0
3 4 19 0
-3 -4 -19 0
5 13 19 0
-5 -13 -19 0
6 19 23 0
-6 -19 -23 0
4 20 0
-4 -20 0
5 14 20 0
-5 -14 -20 0
6 20 24 0
-6 -20 -24 0
4 5 21 0
-4 -5 -21 0
5 15 21 0
-5 -15 -21 0
6 21 25 0
-6 -21 -25 0
4 6 22 0
-4 -6 -22 0
5 16 22 0
-5 -16 -22 0
6 22 26 0
-6 -22 -26 0
4 7 23 0
-4 -7 -23 0
5 17 23 0
-5 -17 -23 0
6 23 27 0
-6 -23 -27 0
4 8 24 0
-4 -8 -24 0
5 18 24 0
-5 -18 -24 0
6 24 28 0
-6 -24 -28 0
4 9 25 0
-4 -9 -25 0
5 19 25 0
-5 -19 -25 0
6 25 29 0
-6 -25 -29 0
4 10 26 0
-4 -10 -26 0
5 20 26 0
-5 -20 -26 0
1 3 27 0
-1 -3 -27 0
4 11 27 0
-4 -11 -27 0
5 21 27 0
-5 -21 -27 0
2 3 28 0
-2 -3 -28 0
4 12 28 0
-4 -12 -28 0
5 22 28 0
-5 -22 -28 0
3 29 0
-3 -29 0
4 13 29 0
-4 -13 -29 0
5 23 29 0
-5 -23 -29 0
