certificates/rado_a10_c56_N29.drat
6 -26 3 0
-6 -28 -29 0
-28 -29 0
d -6 -28 -29 0
28 3 0
d 28 2 3 0
-29 0
3 0
-7 0
21 0
15 0
-5 0
19 0
8 0
1 0
11 0
13 0
23 0
-4 0
-6 0
-27 0
-25 0
18 0
10 0
20 0
22 0
9 0
2 0
0
